db/inputs/1358225625194271364279435359225058854.smt2
(set-logic QF_FP)
(declare-const x0 (_ FloatingPoint 8 24))
(declare-const x1 (_ FloatingPoint 8 24))
(declare-const x2 (_ FloatingPoint 8 24))
(declare-const x3 (_ FloatingPoint 8 24))
(declare-const x4 (_ FloatingPoint 8 24))
(declare-const x5 (_ FloatingPoint 8 24))
(assert (fp.eq (fp.neg x5) (fp.mul RNE x3 x1)))
(assert (fp.eq (fp.div RNE x1 x5) (fp.add RNE x5 x0)))
(assert (fp.eq (fp.neg x1) (fp.div RNE x1 x4)))
(assert (fp.geq (fp.add RNE x2 x2) (fp.sub RNE x5 x0)))
(assert (fp.leq (fp.add RNE x1 x3) (fp.add RNE x4 x0)))
(assert (fp.leq (fp.neg x5) (fp.add RNE x1 x0)))
(assert (fp.eq (fp.sub RNE x4 x4) (fp.add RNE x5 x5)))
(assert (fp.eq (fp.neg x0) (fp.mul RNE x0 x3)))
(assert (fp.gt (fp.mul RNE x0 x3) (fp.div RNE x2 x2)))
(assert (fp.lt (fp.div RNE x0 x0) (fp.neg x1)))
(assert (fp.geq (fp.div RNE x1 x4) (fp.div RNE x2 x0)))
(assert (fp.lt (fp.sub RNE x4 x5) (fp.add RNE x5 x2)))
(check-sat)
