db/data/1358225625194271364279435359225058854.z3.out
unsat
-------------------
1.855273831
